Name: Ing0910-1
Courses: 141
Rooms: 21
Days: 5
Periods_per_day: 5
Curricula: 74
Min_Max_Daily_Lectures: 2 3
UnavailabilityConstraints: 174
RoomConstraints: 424

COURSES:
c1202 t000 4 3 79 0
c1398 t001 4 3 157 0
c0163 t002A 2 1 137 1
c1356 t002B 2 2 23 0
c0839 t002C 2 2 80 0
c1368 t003 2 2 8 0
c0857 t002A 5 2 20 0
c0861 t002B 5 2 20 0
c0865 t002C 5 2 20 0
c0868 t002D 5 2 20 0
c1042 t004 2 2 130 0
c1088 t005 2 2 38 0
c1403 t006 2 2 106 0
c1176 t002E 7 2 40 0
c1177 t007 7 2 40 0
c1199 t008 2 2 74 0
c1204 t009 2 2 140 0
c1314 t002F 2 2 124 0
c1354 t010 2 2 37 0
c1381 t011 4 3 150 0
c1384 t012 3 3 150 0
c1386 t013 2 2 150 0
c1391 t014 1 1 55 0
c1392 t015 2 2 8 0
c1400 t016 2 2 85 0
c1402 t017 2 2 96 0
c1417 t018 2 2 28 0
c1419 t019 2 2 60 0
c1425 t002 2 2 20 0
c1427 t020 2 2 50 0
c1428 t004 2 2 10 0
c1430 t021 2 2 124 0
c1439 t002G 2 2 50 0
c1442 t022 2 2 143 0
c1449 t020 2 2 24 0
c1452 t012 2 2 8 0
c1456 t002D 2 2 25 0
c1500 t002E 2 2 12 0
c1463 t023 2 2 31 0
c1464 t024 2 2 54 0
c1484 t025 4 3 19 0
c1466 t024 2 2 16 0
c1486 t026 4 3 16 0
c1480 t017 2 2 26 0
c1481 t027 2 2 26 0
c1490 t002F 2 2 12 0
c1509 t028 2 2 15 0
c1514 t029 2 2 10 0
c1515 t002G 2 2 16 0
c1518 t010 2 2 60 0
c1521 t030 1 1 37 0
c1532 t031 2 2 38 0
c1535 t032 2 2 38 0
c1537 t030 2 2 23 0
c1544 t002H 2 2 15 0
c1545 t033 2 2 37 0
c1546 t034 2 2 17 0
c1548 t002I 2 2 14 0
c1551 t035 1 1 37 0
c1555 t002J 2 2 77 0
c1556 t002K 2 2 77 0
c1570 t002L 2 2 67 0
c1572 t036 2 2 67 0
c1573 t037 2 2 67 0
c1645 t038 4 3 60 0
c1667 t039 2 2 45 0
c1659 t040 4 3 60 0
c1580 t041 2 2 55 0
c1596 t042 4 2 80 1
c1598 t043 5 2 160 1
c1599 t044 4 3 160 0
c1606 t045 4 2 160 0
c1609 t043 3 3 252 0
c1613 t046 3 3 240 0
c1615 t002F 2 2 240 0
c1619 t016 2 2 312 0
c1622 t047 2 2 240 0
c1635 t002G 3 3 80 0
c1636 t002H 2 2 80 0
c1646 t048 4 3 60 0
c1649 t049 2 2 60 0
c1655 t050 2 2 60 0
c1656 t051 2 2 90 0
c1657 t052 2 2 60 0
c1669 t053 2 2 45 0
c1670 t005 2 2 45 0
c1671 t054 2 2 45 0
c1674 t055 2 2 30 0
c1678 t056 2 2 114 0
c1679 t057 2 2 114 0
c1683 t002I 2 2 114 0
c1697 t058 2 2 125 0
c1698 t059 2 2 125 0
c1699 t060 4 3 125 0
c1701 t049 2 2 125 0
c1703 t061 2 2 83 0
c1705 t062 2 2 80 0
c1708 t063 2 2 80 0
c1709 t064 2 2 80 0
c1715 t065 2 2 124 0
c1717 t066 2 2 80 0
c1718 t002J 2 2 80 0
c1721 t067 3 3 284 0
c1726 t030 3 3 124 0
c1735 t068 2 2 174 0
c1747 t058 2 2 121 0
c1751 t002K 2 2 105 0
c1758 t055 2 2 12 0
c1759 t041 2 2 118 0
c1761 t069 2 2 68 0
c1787 t070 2 1 75 1
c1762 t069 2 2 68 0
c1763 t071 2 2 68 0
c1764 t072 2 2 68 0
c1782 t073 2 2 20 0
c1783 t074 4 4 75 0
c1792 t075 2 2 115 0
c1827 t002L 2 2 24 0
c1829 t076 2 2 17 0
c1832 t077 2 2 29 0
c1834 t019 2 2 15 0
c1835 t078 2 2 15 0
c1850 t006 2 2 12 0
c1858 t002M 2 2 3 0
c1866 t079 2 2 90 0
c1868 t002N 2 2 90 0
c1869 t002O 2 2 90 0
c1870 t080 2 2 90 0
c1875 t081 2 2 80 0
c1877 t082 2 2 80 0
c1525 t083 2 2 28 0
c1879 t028 2 2 80 0
c1882 t084 2 2 80 0
c1884 t073 2 2 174 0
c1885 t085 2 2 110 0
c1886 t086 4 3 70 0
c1887 t087 2 2 143 0
c1888 t085 2 2 70 0
c1928 t002P 2 2 90 0
c1929 t002Q 2 2 37 0
c1940 t002R 1 1 37 0

ROOMS:
r25 40 0
r36 42 0
r37 42 0
r38 48 0
r34 50 0
r27 65 0
B 216 0
D 216 0
F 216 0
G 216 0
A 312 0
L 336 0
N 30 0
Er1 70 0
Er2 70 0
r52 60 0
E 216 0
r50 75 0
r51 78 0
DS1 60 0
DS2 60 0

CURRICULA:
q000 5 c1866 c1868 c1869 c1870 c1928 
q001 5 c1875 c1877 c1879 c1882 c1884 
q002 5 c1884 c1885 c1886 c1887 c1888 
q003 4 c1381 c1384 c1751 c1386 
q004 5 c1758 c1759 c1199 c1202 c1884 
q005 4 c1759 c1199 c1202 c1884 
q006 5 c1834 c1835 c1827 c1829 c1832 
q007 4 c1402 c1398 c1481 c1850 
q008 7 c1834 c1835 c1484 c1858 c1703 c1463 c1392 
q009 3 c1645 c1646 c1649 
q010 4 c1655 c1657 c1659 c1656 
q011 6 c1656 c1667 c1669 c1670 c1671 c1674 
q012 4 c1667 c1669 c1670 c1671 
q013 3 c1381 c1384 c1386 
q014 6 c1204 c1751 c1392 c1202 c0163 c1391 
q015 6 c1199 c1202 c1204 c1751 c1759 c1391 
q016 5 c1204 c1398 c1400 c1402 c1403 
q017 4 c1204 c1398 c1400 c1427 
q018 3 c1204 c1398 c1400 
q019 4 c1697 c1698 c1699 c1701 
q020 4 c1721 c1314 c1715 c1726 
q021 6 c1678 c1679 c1887 c1735 c1683 c1721 
q022 5 c1678 c1679 c1887 c1735 c1683 
q023 6 c1678 c1679 c1887 c1735 c1683 c1442 
q024 4 c1609 c1619 c0163 c1042 
q025 3 c1609 c1619 c0163 
q029 5 c1678 c1679 c1735 c1683 c1721 
q030 5 c1678 c1679 c1735 c1683 c1518 
q031 5 c1678 c1679 c1735 c1683 c1747 
q032 5 c1555 c1556 c1551 c1929 c1518 
q033 5 c1747 c1555 c1556 c1551 c1929 
q034 5 c1747 c1555 c1556 c1580 c1442 
q035 4 c1747 c1555 c1556 c1580 
q036 6 c1570 c1572 c1573 c1747 c1545 c1546 
q037 6 c1570 c1572 c1573 c1518 c1545 c1525 
q038 5 c1570 c1572 c1573 c1885 c1792 
q039 6 c1570 c1572 c1573 c1829 c1509 c1832 
q040 8 c1402 c1417 c1419 c1398 c1425 c1430 c1759 c1427 
q041 8 c1402 c1417 c1419 c1398 c1425 c1430 c1759 c1428 
q042 6 c1419 c1398 c1430 c1759 c1449 c1402 
q043 6 c1419 c1398 c1430 c1759 c1449 c1417 
q044 6 c1419 c1398 c1430 c1759 c1449 c1452 
q045 4 c1439 c1464 c1442 c1403 
q046 5 c1439 c1442 c1403 c1464 c1456 
q047 5 c1354 c1356 c1518 c1521 c1940 
q048 6 c1354 c1518 c1521 c1940 c1356 c1747 
q049 6 c1354 c1518 c1521 c1940 c1747 c1548 
q050 6 c1088 c1532 c1535 c1368 c1525 c1537 
q051 7 c1088 c1532 c1535 c1546 c1537 c1544 c1545 
q052 5 c1088 c1532 c1535 c1929 c1551 
q053 4 c1761 c1762 c1763 c1764 
q054 5 c1761 c1762 c1763 c1764 c1442 
q055 5 c1761 c1762 c1763 c1764 c1782 
q056 4 c1783 c1787 c1792 c1735 
q057 3 c1783 c1787 c1792 
q058 5 c1463 c1490 c1500 c1827 c1832 
q059 7 c1402 c1464 c1419 c1403 c1398 c1463 c1466 
q060 7 c1402 c1463 c1419 c1403 c1398 c1515 c1466 
q061 4 c1509 c1514 c1480 c1481 
q062 5 c1481 c1484 c1486 c1480 c1515 
q063 3 c1484 c1486 c1480 
q064 4 c0839 c1430 c1177 c0857 
q065 4 c0839 c1430 c1176 c0857 
q066 4 c0839 c1430 c1177 c0861 
q067 4 c0839 c1430 c1176 c0861 
q068 4 c0839 c1430 c1177 c0865 
q069 4 c0839 c1430 c1176 c0865 
q070 4 c0839 c1430 c1177 c0868 
q071 4 c0839 c1430 c1176 c0868 
q072 6 c1703 c1705 c1708 c1709 c1717 c1718 
q073 4 c1596 c1598 c1599 c1606 
q074 5 c1598 c1599 c1606 c1635 c1636 
q075 5 c1609 c1613 c1615 c1619 c1622 
q076 4 c1613 c1615 c1619 c1622 

UNAVAILABILITY_CONSTRAINTS:
c1356 0 0
c1356 0 1
c1356 0 2
c1356 0 3
c1356 0 4
c1356 1 0
c1356 1 2
c1356 2 0
c1356 2 1
c1356 2 2
c1356 4 0
c1356 4 1
c1356 4 3
c1356 4 4
c0839 0 2
c1368 0 0
c1368 0 1
c1368 0 2
c1368 0 3
c1368 0 4
c1368 3 3
c1368 3 4
c1368 4 3
c1368 4 4
c0857 0 2
c0861 0 2
c0865 0 2
c0868 0 2
c1199 0 0
c1199 0 1
c1199 0 2
c1199 0 3
c1199 0 4
c1392 0 0
c1392 0 1
c1392 0 2
c1392 0 3
c1392 0 4
c1392 1 0
c1392 1 1
c1392 1 2
c1392 1 3
c1392 1 4
c1392 2 0
c1392 2 1
c1392 2 2
c1392 2 3
c1392 2 4
c1417 0 2
c1417 1 2
c1417 2 2
c1417 3 2
c1417 4 2
c1430 0 2
c1464 0 0
c1464 0 1
c1464 0 2
c1464 0 3
c1464 0 4
c1464 1 0
c1464 1 1
c1464 1 2
c1464 1 3
c1464 1 4
c1464 2 0
c1464 3 0
c1464 4 0
c1509 0 2
c1509 1 2
c1509 2 2
c1509 3 2
c1509 4 2
c1545 0 0
c1545 0 4
c1545 1 0
c1545 1 4
c1545 2 0
c1545 2 4
c1545 3 0
c1545 3 4
c1545 4 0
c1545 4 4
c1546 0 0
c1546 0 1
c1546 4 3
c1546 4 4
c1609 0 0
c1609 0 1
c1609 0 2
c1609 0 3
c1609 0 4
c1609 1 0
c1609 1 1
c1609 1 2
c1609 1 3
c1609 1 4
c1613 4 0
c1613 4 1
c1613 4 2
c1613 4 3
c1613 4 4
c1619 0 0
c1619 0 1
c1619 0 2
c1619 0 3
c1619 0 4
c1619 1 0
c1671 0 0
c1671 0 1
c1671 0 2
c1671 4 2
c1671 4 3
c1671 4 4
c1697 0 4
c1697 1 4
c1697 2 1
c1697 2 2
c1697 2 3
c1697 2 4
c1697 3 4
c1697 4 4
c1715 0 0
c1715 0 1
c1715 0 2
c1715 0 3
c1715 0 4
c1715 1 2
c1715 2 2
c1715 3 2
c1715 3 3
c1715 4 0
c1715 4 1
c1715 4 2
c1715 4 3
c1715 4 4
c1866 0 2
c1866 0 3
c1866 0 4
c1866 1 2
c1866 1 3
c1866 1 4
c1866 2 2
c1866 2 3
c1866 2 4
c1866 3 2
c1866 3 3
c1866 3 4
c1866 4 2
c1866 4 3
c1866 4 4
c1877 3 0
c1877 3 1
c1877 3 2
c1877 3 3
c1877 3 4
c1877 4 0
c1877 4 1
c1877 4 2
c1877 4 3
c1877 4 4
c1525 0 0
c1525 0 1
c1525 0 2
c1525 0 3
c1525 0 4
c1525 2 1
c1525 2 2
c1525 2 3
c1882 0 0
c1882 0 1
c1882 0 2
c1882 3 0
c1882 3 1
c1882 3 2

ROOM_CONSTRAINTS:
c1202 Er1
c1202 Er2
c1202 DS1
c1398 Er1
c1398 Er2
c1398 DS1
c0163 Er1
c0163 Er2
c0163 DS1
c1356 Er1
c1356 Er2
c1356 DS1
c0839 Er1
c0839 Er2
c0839 DS1
c1368 Er1
c1368 Er2
c1368 DS1
c0857 Er1
c0857 Er2
c0857 DS1
c0861 Er1
c0861 Er2
c0861 DS1
c0865 Er1
c0865 Er2
c0865 DS1
c0868 Er1
c0868 Er2
c0868 DS1
c1042 Er1
c1042 Er2
c1042 DS1
c1088 Er1
c1088 Er2
c1088 DS1
c1403 Er1
c1403 Er2
c1403 DS1
c1176 Er1
c1176 Er2
c1176 DS1
c1177 Er1
c1177 Er2
c1177 DS1
c1199 Er1
c1199 Er2
c1199 DS1
c1204 Er1
c1204 Er2
c1204 DS1
c1314 Er1
c1314 Er2
c1314 DS1
c1354 Er1
c1354 Er2
c1354 DS1
c1381 Er1
c1381 Er2
c1381 DS1
c1384 Er1
c1384 Er2
c1384 DS1
c1386 Er1
c1386 Er2
c1386 DS1
c1391 Er1
c1391 Er2
c1391 DS1
c1392 Er1
c1392 Er2
c1392 DS1
c1400 Er1
c1400 Er2
c1400 DS1
c1402 Er1
c1402 Er2
c1402 DS1
c1417 Er1
c1417 Er2
c1417 DS1
c1419 Er1
c1419 Er2
c1419 DS1
c1425 Er1
c1425 Er2
c1425 DS1
c1427 Er1
c1427 Er2
c1427 DS1
c1428 Er1
c1428 Er2
c1428 DS1
c1430 Er1
c1430 Er2
c1430 DS1
c1439 Er1
c1439 Er2
c1439 DS1
c1442 Er1
c1442 Er2
c1442 DS1
c1449 Er1
c1449 Er2
c1449 DS1
c1452 Er1
c1452 Er2
c1452 DS1
c1456 Er1
c1456 Er2
c1456 DS1
c1500 Er1
c1500 Er2
c1500 DS1
c1463 Er1
c1463 Er2
c1463 DS1
c1464 Er1
c1464 Er2
c1464 DS1
c1484 Er1
c1484 Er2
c1484 DS1
c1466 Er1
c1466 Er2
c1466 DS1
c1486 Er1
c1486 Er2
c1486 DS1
c1480 Er1
c1480 Er2
c1480 DS1
c1481 Er1
c1481 Er2
c1481 DS1
c1490 Er1
c1490 Er2
c1490 DS1
c1509 N
c1509 Er1
c1509 Er2
c1509 DS1
c1514 Er1
c1514 Er2
c1514 DS1
c1515 Er1
c1515 Er2
c1515 DS1
c1518 Er1
c1518 Er2
c1518 DS1
c1521 Er1
c1521 Er2
c1521 DS1
c1532 Er1
c1532 Er2
c1532 DS1
c1535 Er1
c1535 Er2
c1535 DS1
c1537 Er1
c1537 Er2
c1537 DS1
c1544 Er1
c1544 Er2
c1544 DS1
c1545 Er1
c1545 Er2
c1545 DS1
c1546 Er1
c1546 Er2
c1546 DS1
c1548 Er1
c1548 Er2
c1548 DS1
c1551 Er1
c1551 Er2
c1551 DS1
c1555 Er1
c1555 Er2
c1555 DS1
c1556 Er1
c1556 Er2
c1556 DS1
c1570 Er1
c1570 Er2
c1570 DS1
c1572 Er1
c1572 Er2
c1572 DS1
c1573 Er1
c1573 Er2
c1573 DS1
c1645 Er1
c1645 Er2
c1645 DS1
c1667 Er1
c1667 Er2
c1667 DS1
c1659 Er1
c1659 Er2
c1659 DS1
c1580 Er1
c1580 Er2
c1580 DS1
c1596 Er1
c1596 Er2
c1596 DS1
c1598 Er1
c1598 Er2
c1598 DS1
c1599 Er1
c1599 Er2
c1599 DS1
c1606 Er1
c1606 Er2
c1606 DS1
c1609 Er1
c1609 Er2
c1609 DS1
c1613 Er1
c1613 Er2
c1613 DS1
c1615 Er1
c1615 Er2
c1615 DS1
c1619 Er1
c1619 Er2
c1619 DS1
c1622 Er1
c1622 Er2
c1622 DS1
c1635 Er1
c1635 Er2
c1635 DS1
c1636 Er1
c1636 Er2
c1636 DS1
c1646 Er1
c1646 Er2
c1646 DS1
c1649 Er1
c1649 Er2
c1649 DS1
c1655 Er1
c1655 Er2
c1655 DS1
c1656 Er1
c1656 Er2
c1656 DS1
c1657 Er1
c1657 Er2
c1657 DS1
c1669 Er1
c1669 Er2
c1669 DS1
c1670 Er1
c1670 Er2
c1670 DS1
c1671 Er1
c1671 Er2
c1671 DS1
c1674 Er1
c1674 Er2
c1674 DS1
c1678 Er1
c1678 Er2
c1678 DS1
c1679 Er1
c1679 Er2
c1679 DS1
c1683 Er1
c1683 Er2
c1683 DS1
c1697 Er1
c1697 Er2
c1697 DS1
c1698 Er1
c1698 Er2
c1698 DS1
c1699 Er1
c1699 Er2
c1699 DS1
c1701 Er1
c1701 Er2
c1701 DS1
c1703 Er1
c1703 Er2
c1703 DS1
c1705 Er1
c1705 Er2
c1705 DS1
c1708 Er1
c1708 Er2
c1708 DS1
c1709 Er1
c1709 Er2
c1709 DS1
c1715 Er1
c1715 Er2
c1715 DS1
c1717 Er1
c1717 Er2
c1717 DS1
c1718 Er1
c1718 Er2
c1718 DS1
c1721 Er1
c1721 Er2
c1721 DS1
c1726 Er1
c1726 Er2
c1726 DS1
c1735 Er1
c1735 Er2
c1735 DS1
c1747 Er1
c1747 Er2
c1747 DS1
c1751 Er1
c1751 Er2
c1751 DS1
c1758 Er1
c1758 Er2
c1758 DS1
c1759 Er1
c1759 Er2
c1759 DS1
c1761 Er1
c1761 Er2
c1761 DS1
c1787 Er1
c1787 Er2
c1787 DS1
c1762 Er1
c1762 Er2
c1762 DS1
c1763 Er1
c1763 Er2
c1763 DS1
c1764 Er1
c1764 Er2
c1764 DS1
c1782 Er1
c1782 Er2
c1782 DS1
c1783 Er1
c1783 Er2
c1783 DS1
c1792 Er1
c1792 Er2
c1792 DS1
c1827 Er1
c1827 Er2
c1827 DS1
c1829 Er1
c1829 Er2
c1829 DS1
c1832 Er1
c1832 Er2
c1832 DS1
c1834 Er1
c1834 Er2
c1834 DS1
c1835 Er1
c1835 Er2
c1835 DS1
c1850 Er1
c1850 Er2
c1850 DS1
c1858 Er1
c1858 Er2
c1858 DS1
c1866 Er1
c1866 Er2
c1866 DS1
c1868 Er1
c1868 Er2
c1868 DS1
c1869 Er1
c1869 Er2
c1869 DS1
c1870 Er1
c1870 Er2
c1870 DS1
c1875 Er1
c1875 Er2
c1875 DS1
c1877 Er1
c1877 Er2
c1877 DS1
c1525 Er1
c1525 Er2
c1525 DS1
c1879 Er1
c1879 Er2
c1879 DS1
c1882 Er1
c1882 Er2
c1882 DS1
c1884 Er1
c1884 Er2
c1884 DS1
c1885 Er1
c1885 Er2
c1885 DS1
c1886 Er1
c1886 Er2
c1886 DS1
c1887 Er1
c1887 Er2
c1887 DS1
c1888 Er1
c1888 Er2
c1888 DS1
c1928 Er1
c1928 Er2
c1928 DS1
c1929 Er1
c1929 Er2
c1929 DS1
c1940 Er1
c1940 Er2
c1940 DS1

END.
